(set-logic QF_AUFLIA)
(declare-const s_arr (Array Int Int))
(declare-const s_len Int)
(assert (and (<= 0 s_len) (<= s_len 6)))
(assert (= s_len 4))
(assert (and (=> (< 1 s_len) (<= (select s_arr 0) (select s_arr 1))) (=> (< 2 s_len) (<= (select s_arr 1) (select s_arr 2))) (=> (< 3 s_len) (<= (select s_arr 2) (select s_arr 3))) (=> (< 4 s_len) (<= (select s_arr 3) (select s_arr 4))) (=> (< 5 s_len) (<= (select s_arr 4) (select s_arr 5)))))
(assert (or (and (< 0 s_len) (= (select s_arr 0) 10)) (and (< 1 s_len) (= (select s_arr 1) 10)) (and (< 2 s_len) (= (select s_arr 2) 10)) (and (< 3 s_len) (= (select s_arr 3) 10)) (and (< 4 s_len) (= (select s_arr 4) 10)) (and (< 5 s_len) (= (select s_arr 5) 10))))
(assert (and (=> (< 0 s_len) (and (>= (select s_arr 0) 0) (<= (select s_arr 0) 20))) (=> (< 1 s_len) (and (>= (select s_arr 1) 0) (<= (select s_arr 1) 20))) (=> (< 2 s_len) (and (>= (select s_arr 2) 0) (<= (select s_arr 2) 20))) (=> (< 3 s_len) (and (>= (select s_arr 3) 0) (<= (select s_arr 3) 20))) (=> (< 4 s_len) (and (>= (select s_arr 4) 0) (<= (select s_arr 4) 20))) (=> (< 5 s_len) (and (>= (select s_arr 5) 0) (<= (select s_arr 5) 20)))))
(check-sat)
